GeneratedTests/Random_8/Random_8_8.tsp
NAME: Random_8_8
TYPE: TSP
DIMENSION: 8
EDGE_WEIGHT_TYPE: EUC_2D
NODE_COORD_SECTION
1 2.4858427 10.679298
2 4.57991 6.1326456
3 3.2299776 11.274387
4 1.4583993 13.338341
5 5.7674074 22.283882
6 21.523409 4.071054
7 16.24254 14.605518
8 13.809931 12.425842
EOF
