GeneratedTests/Random_8/Random_8_8.txt
NAME: Random_8_8
TYPE: TSP
DIMENSION: 8
EDGE_WEIGHT_TYPE: EUC_2D
NODE_COORD_SECTION
1 15.493519 22.38597
2 3.9944315 17.689363
3 15.636077 18.833038
4 4.7696958 20.454308
5 23.096579 7.2661242
6 12.4802 5.008727
7 17.728355 23.944775
8 14.900422 4.059697
EOF
